language Essence 1.3
letting nnodes be 10
letting nrings be 6
letting capacity be 3
letting demand be {{1, 4},
{1, 5},
{1, 9},
{2, 3},
{2, 4},
{2, 6},
{2, 10},
{3, 4},
{3, 9},
{5, 7},
{5, 9},
{5, 10},
{7, 9},
{8, 10},
{9, 10}}
